p cnf    238        318
c 1 string_SOCKET_PROGRESS_PATH_eq_empty
c 2 string_SOCKET_PROGRESS_PATH_eq_SOCKET_PROGRESS_PATH_otherval
c 3 bool_NOCLEANUP
c 4 bool_BOOTLOADER_NONE
c 5 env_bool_HAVE_MBEDTLS_alias_HAVE_MBEDTLS
c 6 string_EXTRA_CFLAGS_eq_empty
c 7 string_EXTRA_CFLAGS_eq_EXTRA_CFLAGS_otherval
c 8 string_EXTRA_LDLIBS_eq_empty
c 9 string_EXTRA_LDLIBS_eq_EXTRA_LDLIBS_otherval
c 10 string_EXTRA_LDFLAGS_eq_empty
c 11 string_EXTRA_LDFLAGS_eq_EXTRA_LDFLAGS_otherval
c 12 string_SYSROOT_eq_empty
c 13 string_SYSROOT_eq_SYSROOT_otherval
c 14 bool_FEATURE_SYSLOG
c 15 bool_DEBUG
c 16 string_SW_VERSIONS_FILE_eq_empty
c 17 string_SW_VERSIONS_FILE_eq_/etc/sw-versions
c 18 string_SW_VERSIONS_FILE_eq_SW_VERSIONS_FILE_otherval
c 19 env_bool_HAVE_LIBSYSTEMD_alias_HAVE_LIBSYSTEMD
c 20 bool_WERROR
c 21 env_bool_HAVE_ZLIB_alias_HAVE_ZLIB
c 22 bool_COPY
c 23 env_bool_HAVE_WOLFSSL_alias_HAVE_WOLFSSL
c 24 env_bool_HAVE_LUA_alias_HAVE_LUA
c 25 env_bool_HAVE_LIBEXT2FS_alias_HAVE_LIBEXT2FS
c 26 env_bool_HAVE_P11KIT_alias_HAVE_P11KIT
c 27 bool_SHELLSCRIPTHANDLER
c 28 env_bool_HAVE_FREEBSD_alias_HAVE_FREEBSD
c 29 bool_DEBUG_PESSIMIZE
c 30 env_bool_HAVE_LIBCONFIG_alias_HAVE_LIBCONFIG
c 31 env_bool_HAVE_LIBCURL_alias_HAVE_LIBCURL
c 32 env_bool_HAVE_LIBUBOOTENV_alias_HAVE_LIBUBOOTENV
c 33 env_bool_HAVE_URIPARSER_alias_HAVE_URIPARSER
c 34 env_bool_HAVE_LIBCRYPTO_alias_HAVE_LIBCRYPTO
c 35 bool_RAW
c 36 env_bool_HAVE_LIBMTD_alias_HAVE_LIBMTD
c 37 env_bool_HAVE_LIBFDISK_alias_HAVE_LIBFDISK
c 38 env_bool_HAVE_LIBUBI_alias_HAVE_LIBUBI
c 39 string_CROSS_COMPILE_eq_empty
c 40 string_CROSS_COMPILE_eq_CROSS_COMPILE_otherval
c 41 bool_SCRIPTS
c 42 env_bool_HAVE_LIBBTRFS_alias_HAVE_LIBBTRFS
c 43 env_bool_HAVE_ZSTD_alias_HAVE_ZSTD
c 44 env_bool_HAVE_LIBARCHIVE_alias_HAVE_LIBARCHIVE
c 45 string_SOCKET_NOTIFIER_DIRECTORY_eq_empty
c 46 string_SOCKET_NOTIFIER_DIRECTORY_eq_/tmp/
c 47 string_SOCKET_NOTIFIER_DIRECTORY_eq_SOCKET_NOTIFIER_DIRECTORY_otherval
c 48 env_bool_HAVE_LIBZEROMQ_alias_HAVE_LIBZEROMQ
c 49 bool_HW_COMPATIBILITY
c 50 env_bool_HAVE_JSON_C_alias_HAVE_JSON_C
c 51 env_bool_HAVE_LIBGPIOD_alias_HAVE_LIBGPIOD
c 52 env_bool_HAVE_LIBWEBSOCKETS_alias_HAVE_LIBWEBSOCKETS
c 53 env_bool_HAVE_LIBRSYNC_alias_HAVE_LIBRSYNC
c 54 bool_DISKPART
c 55 env_bool_HAVE_LINUX_alias_HAVE_LINUX
c 56 env_bool_HAVE_LIBEBGENV_alias_HAVE_LIBEBGENV
c 57 env_bool_HAVE_ZCK_alias_HAVE_ZCK
c 58 bool_BOOTLOADER_GRUB
c 59 bool_BOOTLOADER_STATIC_LINKED
c 60 bool_SURICATTA
c 61 bool_SURICATTA_LUA
c 62 bool_EMBEDDED_SURICATTA_LUA
c 63 bool_SURICATTA_GENERAL
c 64 bool_WEBSERVER
c 65 bool_MONGOOSE
c 66 bool_MONGOOSEIPV6
c 67 string_HW_COMPATIBILITY_FILE_eq_empty
c 68 string_HW_COMPATIBILITY_FILE_eq_/etc/hwrevision
c 69 string_HW_COMPATIBILITY_FILE_eq_HW_COMPATIBILITY_FILE_otherval
c 70 string_SOCKET_CTRL_PATH_eq_empty
c 71 string_SOCKET_CTRL_PATH_eq_SOCKET_CTRL_PATH_otherval
c 72 bool_DISKFORMAT_HANDLER
c 73 bool_REMOTE_HANDLER
c 74 bool_ZSTD
c 75 bool_GUNZIP
c 76 bool_SETSWDESCRIPTION
c 77 string_SWDESCRIPTION_eq_empty
c 78 string_SWDESCRIPTION_eq_SWDESCRIPTION_otherval
c 79 bool_ARCHIVE
c 80 string_DEFAULT_CONFIG_FILE_eq_empty
c 81 string_DEFAULT_CONFIG_FILE_eq_/etc/swupdate.cfg
c 82 string_DEFAULT_CONFIG_FILE_eq_DEFAULT_CONFIG_FILE_otherval
c 83 bool_BOOTLOADERHANDLER
c 84 bool_DELTA
c 85 env_bool_HAVE_LIBBLKID_alias_HAVE_LIBBLKID
c 86 env_bool_HAVE_LIBSSL_alias_HAVE_LIBSSL
c 87 bool_DISKPART_FORMAT
c 88 bool_RDIFFHANDLER
c 89 bool_MTD
c 90 string_GRUBENV_PATH_eq_/boot/efi/EFI/BOOT/grub/grubenv
c 91 string_GRUBENV_PATH_eq_GRUBENV_PATH_otherval
c 92 string_GRUBENV_PATH_eq_empty
c 93 bool_CFIHAMMING1
c 94 bool_SSBLSWITCH
c 95 bool_DISKFORMAT
c 96 bool_BOOTLOADER_EBG
c 97 bool_FAT_FILESYSTEM
c 98 bool_LOCALE
c 99 bool_SSL_IMPL_NONE
c 100 bool_SSL_IMPL_MBEDTLS
c 101 bool_SSL_IMPL_WOLFSSL
c 102 bool_SSL_IMPL_OPENSSL
c 103 bool_SWUFORWARDER_HANDLER
c 104 bool_SYSTEMD
c 105 string_EMBEDDED_SURICATTA_LUA_SOURCE_eq_empty
c 106 string_EMBEDDED_SURICATTA_LUA_SOURCE_eq_EMBEDDED_SURICATTA_LUA_SOURCE_otherval
c 107 string_EMBEDDED_SURICATTA_LUA_SOURCE_eq_swupdate_suricatta.lua
c 108 bool_UBOOT
c 109 bool_LUA
c 110 bool_SURICATTA_HAWKBIT
c 111 bool_UPDATE_STATE_CHOICE_BOOTLOADER
c 112 bool_UBIVOL
c 113 bool_BOOTLOADER_DEFAULT_EBG
c 114 bool_BOOTLOADER_DEFAULT_NONE
c 115 bool_BOOTLOADER_DEFAULT_GRUB
c 116 bool_BOOTLOADER_DEFAULT_UBOOT
c 117 bool_UNIQUEUUID
c 118 string_UBOOT_DEFAULTENV_eq_empty
c 119 string_UBOOT_DEFAULTENV_eq_/etc/u-boot-initial-env
c 120 string_UBOOT_DEFAULTENV_eq_UBOOT_DEFAULTENV_otherval
c 121 bool_CFI
c 122 string_UBOOT_FWENV_eq_empty
c 123 string_UBOOT_FWENV_eq_/etc/fw_env.config
c 124 string_UBOOT_FWENV_eq_UBOOT_FWENV_otherval
c 125 bool_DOWNLOAD
c 126 bool_MONGOOSESSL
c 127 bool_SURICATTA_SSL
c 128 bool_CHANNEL_CURL
c 129 bool_LIBCONFIG
c 130 bool_BTRFS_FILESYSTEM
c 131 bool_SIGNED_IMAGES
c 132 bool_UCFWHANDLER
c 133 bool_HASH_VERIFY
c 134 string_UPDATE_STATE_BOOTLOADER_eq_empty
c 135 string_UPDATE_STATE_BOOTLOADER_eq_UPDATE_STATE_BOOTLOADER_otherval
c 136 string_UPDATE_STATE_BOOTLOADER_eq_ustate
c 137 bool_LUAEXTERNAL
c 138 bool_DOWNLOAD_SSL
c 139 bool_CHANNEL_CURL_SSL
c 140 bool_JSON
c 141 bool_SIGALG_RAWRSA
c 142 bool_SIGALG_CMS
c 143 bool_SIGALG_RSAPSS
c 144 bool_CURL
c 145 bool_READBACKHANDLER
c 146 bool_CURL_SSL
c 147 string_LUAPKG_eq_empty
c 148 string_LUAPKG_eq_LUAPKG_otherval
c 149 string_LUAPKG_eq_lua
c 150 bool_CMS_IGNORE_CERTIFICATE_PURPOSE
c 151 bool_CMS_SKIP_UNKNOWN_SIGNERS
c 152 bool_UBIATTACH
c 153 bool_ENCRYPTED_IMAGES
c 154 bool_EXT_FILESYSTEM
c 155 string_PARSERROOT_eq_empty
c 156 string_PARSERROOT_eq_PARSERROOT_otherval
c 157 bool_LUASCRIPTHANDLER
c 158 bool_BTRFS_FILESYSTEM_USELIBMKFS
c 159 bool_CMS_IGNORE_EXPIRED_CERTIFICATE
c 160 bool_PKCS11
c 161 bool_SETEXTPARSERNAME
c 162 bool_ENCRYPTED_SW_DESCRIPTION
c 163 string_EXTPARSERNAME_eq_empty
c 164 string_EXTPARSERNAME_eq_EXTPARSERNAME_otherval
c 165 bool_HANDLER_IN_LUA
c 166 string_UBIBLACKLIST_eq_empty
c 167 string_UBIBLACKLIST_eq_UBIBLACKLIST_otherval
c 168 master_int_UBIVIDOFFSET
c 169 sign_int_UBIVIDOFFSET
c 170 bit_0_int_UBIVIDOFFSET
c 171 bit_1_int_UBIVIDOFFSET
c 172 bit_2_int_UBIVIDOFFSET
c 173 bit_3_int_UBIVIDOFFSET
c 174 bit_4_int_UBIVIDOFFSET
c 175 bit_5_int_UBIVIDOFFSET
c 176 bit_6_int_UBIVIDOFFSET
c 177 bit_7_int_UBIVIDOFFSET
c 178 bit_8_int_UBIVIDOFFSET
c 179 bit_9_int_UBIVIDOFFSET
c 180 bit_10_int_UBIVIDOFFSET
c 181 bit_11_int_UBIVIDOFFSET
c 182 bit_12_int_UBIVIDOFFSET
c 183 bit_13_int_UBIVIDOFFSET
c 184 bit_14_int_UBIVIDOFFSET
c 185 bit_15_int_UBIVIDOFFSET
c 186 bit_16_int_UBIVIDOFFSET
c 187 bit_17_int_UBIVIDOFFSET
c 188 bit_18_int_UBIVIDOFFSET
c 189 bit_19_int_UBIVIDOFFSET
c 190 bit_20_int_UBIVIDOFFSET
c 191 bit_21_int_UBIVIDOFFSET
c 192 bit_22_int_UBIVIDOFFSET
c 193 bit_23_int_UBIVIDOFFSET
c 194 bit_24_int_UBIVIDOFFSET
c 195 bit_25_int_UBIVIDOFFSET
c 196 bit_26_int_UBIVIDOFFSET
c 197 bit_27_int_UBIVIDOFFSET
c 198 bit_28_int_UBIVIDOFFSET
c 199 bit_29_int_UBIVIDOFFSET
c 200 bit_30_int_UBIVIDOFFSET
c 201 bit_31_int_UBIVIDOFFSET
c 202 bit_32_int_UBIVIDOFFSET
c 203 bit_33_int_UBIVIDOFFSET
c 204 bit_34_int_UBIVIDOFFSET
c 205 bit_35_int_UBIVIDOFFSET
c 206 bit_36_int_UBIVIDOFFSET
c 207 bit_37_int_UBIVIDOFFSET
c 208 bit_38_int_UBIVIDOFFSET
c 209 bit_39_int_UBIVIDOFFSET
c 210 bit_40_int_UBIVIDOFFSET
c 211 bit_41_int_UBIVIDOFFSET
c 212 bit_42_int_UBIVIDOFFSET
c 213 bit_43_int_UBIVIDOFFSET
c 214 bit_44_int_UBIVIDOFFSET
c 215 bit_45_int_UBIVIDOFFSET
c 216 bit_46_int_UBIVIDOFFSET
c 217 bit_47_int_UBIVIDOFFSET
c 218 bit_48_int_UBIVIDOFFSET
c 219 bit_49_int_UBIVIDOFFSET
c 220 bit_50_int_UBIVIDOFFSET
c 221 bit_51_int_UBIVIDOFFSET
c 222 bit_52_int_UBIVIDOFFSET
c 223 bit_53_int_UBIVIDOFFSET
c 224 bit_54_int_UBIVIDOFFSET
c 225 bit_55_int_UBIVIDOFFSET
c 226 bit_56_int_UBIVIDOFFSET
c 227 bit_57_int_UBIVIDOFFSET
c 228 bit_58_int_UBIVIDOFFSET
c 229 bit_59_int_UBIVIDOFFSET
c 230 bit_60_int_UBIVIDOFFSET
c 231 bit_61_int_UBIVIDOFFSET
c 232 bit_62_int_UBIVIDOFFSET
c 233 bool_EMBEDDED_LUA_HANDLER
c 234 string_UBIWHITELIST_eq_empty
c 235 string_UBIWHITELIST_eq_UBIWHITELIST_otherval
c 236 string_EMBEDDED_LUA_HANDLER_SOURCE_eq_empty
c 237 string_EMBEDDED_LUA_HANDLER_SOURCE_eq_EMBEDDED_LUA_HANDLER_SOURCE_otherval
c 238 string_EMBEDDED_LUA_HANDLER_SOURCE_eq_swupdate_handlers.lua
-1 -2 0
1 2 0
-6 -7 0
6 7 0
-8 -9 0
8 9 0
-10 -11 0
10 11 0
-12 -13 0
12 13 0
-14 0
-18 -17 0
-16 -18 0
-16 -17 0
16 17 18 0
15 -29 0
-39 -40 0
39 40 0
-47 -46 0
-45 -47 0
-45 -46 0
45 46 47 -28 0
28 -45 0
28 -46 0
28 -47 0
37 -54 0
31 -60 0
24 -61 0
60 -61 0
50 -61 0
60 -62 0
61 -62 0
60 -63 0
50 -63 0
65 -64 0
64 -65 0
64 -66 0
65 -66 0
-69 -68 0
-67 -69 0
-67 -68 0
67 68 69 -49 0
49 -67 0
49 -68 0
49 -69 0
-70 -71 0
70 71 0
48 -73 0
43 -74 0
75 -21 0
21 -75 0
-77 -78 0
77 78 -76 0
76 -77 0
76 -78 0
44 -79 0
-82 -81 0
-80 -82 0
-80 -81 0
80 81 82 0
43 -84 0
31 -84 0
57 -84 0
54 -87 0
53 -88 0
55 -89 0
36 -89 0
-91 -90 0
-92 -91 0
-92 -90 0
90 92 91 -58 0
58 -90 0
58 -92 0
58 -91 0
89 -93 0
89 -94 0
95 -72 0
95 -87 0
72 87 -95 0
56 -96 0
95 -97 0
79 -98 0
99 102 101 100 0
86 -102 0
23 -101 0
5 -100 0
-99 -102 0
-99 -101 0
-99 -100 0
-102 -101 0
-102 -100 0
-101 -100 0
50 -103 0
52 -103 0
31 -103 0
33 -103 0
55 -104 0
19 -104 0
-107 -106 0
-107 -105 0
-105 -106 0
105 107 106 -60 -62 0
60 -105 0
60 -107 0
60 -106 0
62 -105 0
62 -107 0
62 -106 0
32 -108 0
109 -61 0
61 24 -109 0
60 -110 0
50 -110 0
111 -96 0
111 -108 0
111 -4 0
111 -58 0
96 108 4 58 -111 0
96 108 4 58 -111 0
38 -112 0
89 -112 0
116 115 113 114 -96 0
116 115 113 114 -108 0
116 115 113 114 -58 0
116 115 113 114 -4 0
96 108 58 4 -113 0
96 108 58 4 -116 0
96 108 58 4 -115 0
96 108 58 4 -114 0
96 -113 0
108 -116 0
58 -115 0
4 -114 0
-113 -116 0
-113 -115 0
-113 -114 0
-116 -115 0
-116 -114 0
-115 -114 0
85 -117 0
-120 -119 0
-118 -120 0
-118 -119 0
118 119 120 -108 0
108 -118 0
108 -119 0
108 -120 0
89 -121 0
-124 -123 0
-122 -124 0
-122 -123 0
122 123 124 -108 0
108 -122 0
108 -123 0
108 -124 0
31 -125 0
64 -126 0
65 -126 0
102 101 100 -126 0
60 -127 0
128 -103 0
128 -84 0
128 -60 0
128 -125 0
103 84 60 125 -128 0
30 -129 0
95 -130 0
42 -130 0
101 100 102 -131 0
51 -132 0
133 -131 0
131 100 101 102 -133 0
-136 -135 0
-136 -134 0
-134 -135 0
134 136 135 0
109 -137 0
125 -138 0
139 -127 0
139 -138 0
127 138 -139 0
140 -103 0
140 -63 0
140 -61 0
140 -110 0
103 63 61 110 50 -140 0
141 143 142 -131 0
131 -141 0
131 -143 0
131 -142 0
102 101 -142 0
-141 -143 0
-141 -142 0
-143 -142 0
144 -31 -128 0
31 -144 0
128 -144 0
133 -145 0
146 -128 -139 0
128 -146 0
139 -146 0
-149 -148 0
-149 -147 0
-147 -148 0
147 149 148 -109 0
109 -147 0
109 -149 0
109 -148 0
150 -101 0
101 142 -150 0
151 -101 0
101 142 -151 0
112 -152 0
101 100 102 -153 0
95 -154 0
25 -154 0
-155 -156 0
155 156 -140 0
155 156 -129 0
140 129 -155 0
140 129 -156 0
109 -157 0
95 -158 0
42 -158 0
142 -159 0
23 -160 0
26 -160 0
153 -160 0
137 -161 0
153 -162 0
-163 -164 0
163 164 -161 0
161 -163 0
161 -164 0
157 -165 0
-166 -167 0
166 167 -152 0
152 -166 0
152 -167 0
168 -152 0
152 -168 0
152 -169 0
152 -170 0
152 -171 0
152 -172 0
152 -173 0
152 -174 0
152 -175 0
152 -176 0
152 -177 0
152 -178 0
152 -179 0
152 -180 0
152 -181 0
152 -182 0
152 -183 0
152 -184 0
152 -185 0
152 -186 0
152 -187 0
152 -188 0
152 -189 0
152 -190 0
152 -191 0
152 -192 0
152 -193 0
152 -194 0
152 -195 0
152 -196 0
152 -197 0
152 -198 0
152 -199 0
152 -200 0
152 -201 0
152 -202 0
152 -203 0
152 -204 0
152 -205 0
152 -206 0
152 -207 0
152 -208 0
152 -209 0
152 -210 0
152 -211 0
152 -212 0
152 -213 0
152 -214 0
152 -215 0
152 -216 0
152 -217 0
152 -218 0
152 -219 0
152 -220 0
152 -221 0
152 -222 0
152 -223 0
152 -224 0
152 -225 0
152 -226 0
152 -227 0
152 -228 0
152 -229 0
152 -230 0
152 -231 0
152 -232 0
171 172 173 204 210 216 225 212 189 205 175 218 186 170 183 219 209 196 232 224 223 230 190 214 176 228 215 213 211 180 220 229 208 221 227 231 206 199 226 222 184 203 202 201 200 194 192 191 181 198 197 195 174 193 188 217 187 207 178 185 182 179 177 -169 0
165 -233 0
-234 -235 0
234 235 -152 0
152 -234 0
152 -235 0
-238 -237 0
-238 -236 0
-236 -237 0
236 238 237 -233 0
233 -236 0
233 -238 0
233 -237 0
